(set-info :source |printed by MathSAT|)
(declare-fun |.x{1658}| () Int)
(declare-fun |.x{1960}| () Int)
(declare-fun |.x{1659}| () (Array Int Int))
(declare-fun |.x{1961}| () (Array Int Int))
(declare-fun |.x{1660}| () (Array Int Int))
(declare-fun |.x{1962}| () (Array Int Int))
(declare-fun |.x{1661}| () (Array Int (Array Int Int)))
(declare-fun |.x{1963}| () (Array Int (Array Int Int)))
(declare-fun |.x{1662}| () (Array Int (Array Int Int)))
(declare-fun |.x{1964}| () (Array Int (Array Int Int)))
(declare-fun |.x{1663}| () Int)
(declare-fun |.x{1965}| () Int)
(declare-fun |.x{1664}| () Int)
(declare-fun |.x{1966}| () Int)
(declare-fun |.x{1665}| () (Array Int Int))
(declare-fun |.x{1967}| () (Array Int Int))
(declare-fun |.x{1666}| () (Array Int Int))
(declare-fun |.x{1968}| () (Array Int Int))
(declare-fun |.x{1667}| () Int)
(declare-fun |.x{1969}| () Int)
(declare-fun |.x{1668}| () Int)
(declare-fun |.x{1970}| () Int)
(declare-fun |.x{1669}| () Int)
(declare-fun |.x{1971}| () Int)
(declare-fun |.x{1670}| () Int)
(declare-fun |.x{1972}| () Int)
(declare-fun |.x{1671}| () Int)
(declare-fun |.x{1973}| () Int)
(declare-fun |.x{1672}| () Int)
(declare-fun |.x{1974}| () Int)
(declare-fun |.x{1673}| () Int)
(declare-fun |.x{1975}| () Int)
(declare-fun |.x{1674}| () Int)
(declare-fun |.x{1976}| () Int)
(declare-fun |.x{1675}| () Int)
(declare-fun |.x{1977}| () Int)
(declare-fun |.x{1676}| () Int)
(declare-fun |.x{1978}| () Int)
(declare-fun |.x{1677}| () Int)
(declare-fun |.x{1979}| () Int)
(declare-fun |.x{1678}| () Int)
(declare-fun |.x{1980}| () Int)
(declare-fun |.x{1679}| () Int)
(declare-fun |.x{1981}| () Int)
(declare-fun |.x{1680}| () Int)
(declare-fun |.x{1982}| () Int)
(declare-fun |.x{1681}| () Int)
(declare-fun |.x{1983}| () Int)
(declare-fun |.x{1682}| () Int)
(declare-fun |.x{1984}| () Int)
(declare-fun |.x{1683}| () Int)
(declare-fun |.x{1985}| () Int)
(declare-fun |.x{1684}| () Int)
(declare-fun |.x{1986}| () Int)
(declare-fun |.x{1723}| () Int)
(declare-fun |.x{1987}| () Int)
(declare-fun |.x{1686}| () Int)
(declare-fun |.x{1988}| () Int)
(declare-fun |.x{1687}| () Int)
(declare-fun |.x{1989}| () Int)
(declare-fun |.x{1688}| () Int)
(declare-fun |.x{1990}| () Int)
(declare-fun |.x{1689}| () Int)
(declare-fun |.x{1991}| () Int)
(declare-fun |.x{1690}| () Int)
(declare-fun |.x{1992}| () Int)
(declare-fun |.x{1691}| () Int)
(declare-fun |.x{1993}| () Int)
(declare-fun |.x{1692}| () Int)
(declare-fun |.x{1994}| () Int)
(declare-fun |.x{1693}| () Int)
(declare-fun |.x{1995}| () Int)
(declare-fun |.x{1694}| () Int)
(declare-fun |.x{1996}| () Int)
(declare-fun |.x{1695}| () Bool)
(declare-fun |.x{1997}| () Bool)
(declare-fun |.loc{5}| () Bool)
(declare-fun |.loc{9}| () Bool)
(declare-fun |.loc{6}| () Bool)
(declare-fun |.loc{10}| () Bool)
(declare-fun |.loc{7}| () Bool)
(declare-fun |.loc{11}| () Bool)
(declare-fun |.loc{8}| () Bool)
(declare-fun |.loc{12}| () Bool)
(declare-fun |.x{151}| () (Array Int Int))
(declare-fun |.x{2069}| () Int)
(define-fun .def_86 () Bool (! |.loc{6}| :next |.loc{10}|))
(define-fun .def_148 () Bool (not .def_86))
(define-fun .def_84 () Bool (! |.loc{5}| :next |.loc{9}|))
(define-fun .def_134 () Bool (not .def_84))
(define-fun .def_658 () Bool (and .def_134 .def_148))
(define-fun .def_88 () Bool (! |.loc{7}| :next |.loc{11}|))
(define-fun .def_152 () Bool (not .def_88))
(define-fun .def_659 () Bool (and .def_152 .def_658))
(define-fun .def_90 () Bool (! |.loc{8}| :next |.loc{12}|))
(define-fun .def_633 () Bool (not .def_90))
(define-fun .def_660 () Bool (and .def_633 .def_659))
(define-fun .def_28 () Int (! |.x{1668}| :next |.x{1970}|))
(define-fun .def_26 () Int (! |.x{1667}| :next |.x{1969}|))
(define-fun .def_652 () Bool (= .def_26 .def_28))
(define-fun .def_16 () (Array Int (Array Int Int)) (! |.x{1662}| :next |.x{1964}|))
(define-fun .def_14 () (Array Int (Array Int Int)) (! |.x{1661}| :next |.x{1963}|))
(define-fun .def_651 () Bool (= .def_14 .def_16))
(define-fun .def_653 () Bool (and .def_651 .def_652))
(define-fun .def_20 () Int (! |.x{1664}| :next |.x{1966}|))
(define-fun .def_18 () Int (! |.x{1663}| :next |.x{1965}|))
(define-fun .def_650 () Bool (= .def_18 .def_20))
(define-fun .def_654 () Bool (and .def_650 .def_653))
(define-fun .def_24 () (Array Int Int) (! |.x{1666}| :next |.x{1968}|))
(define-fun .def_22 () (Array Int Int) (! |.x{1665}| :next |.x{1967}|))
(define-fun .def_649 () Bool (= .def_22 .def_24))
(define-fun .def_655 () Bool (and .def_649 .def_654))
(define-fun .def_12 () (Array Int Int) (! |.x{1660}| :next |.x{1962}|))
(define-fun .def_10 () (Array Int Int) (! |.x{1659}| :next |.x{1961}|))
(define-fun .def_648 () Bool (= .def_10 .def_12))
(define-fun .def_656 () Bool (and .def_648 .def_655))
(define-fun .def_82 () Bool (! |.x{1695}| :next |.x{1997}|))
(define-fun .def_647 () Bool (not .def_82))
(define-fun .def_657 () Bool (and .def_647 .def_656))
(define-fun .def_661 () Bool (! (and .def_657 .def_660) :init true))
(define-fun .def_644 () Bool (= .def_16 |.x{1964}|))
(define-fun .def_642 () Bool (= .def_12 |.x{1962}|))
(define-fun .def_8 () Int (! |.x{1658}| :next |.x{1960}|))
(define-fun .def_640 () Bool (= .def_8 |.x{1960}|))
(define-fun .def_638 () Bool (= .def_28 |.x{1970}|))
(define-fun .def_636 () Bool (= .def_24 |.x{1968}|))
(define-fun .def_634 () Bool (= .def_20 |.x{1966}|))
(define-fun .def_635 () Bool (and .def_633 .def_634))
(define-fun .def_637 () Bool (and .def_635 .def_636))
(define-fun .def_639 () Bool (and .def_637 .def_638))
(define-fun .def_641 () Bool (and .def_639 .def_640))
(define-fun .def_643 () Bool (and .def_641 .def_642))
(define-fun .def_645 () Bool (and .def_643 .def_644))
(define-fun .def_630 () Bool (= .def_18 |.x{1965}|))
(define-fun .def_78 () Int (! |.x{1693}| :next |.x{1995}|))
(define-fun .def_626 () Bool (= .def_78 |.x{1995}|))
(define-fun .def_66 () Int (! |.x{1687}| :next |.x{1989}|))
(define-fun .def_624 () Bool (= .def_66 |.x{1989}|))
(define-fun .def_68 () Int (! |.x{1688}| :next |.x{1990}|))
(define-fun .def_595 () Bool (= |.x{1987}| .def_68))
(define-fun .def_596 () Bool (or .def_82 .def_595))
(define-fun .def_44 () Int (! |.x{1676}| :next |.x{1978}|))
(define-fun .def_130 () Bool (= .def_44 |.x{1978}|))
(define-fun .def_34 () Int (! |.x{1671}| :next |.x{1973}|))
(define-fun .def_120 () Bool (= .def_34 |.x{1973}|))
(define-fun .def_587 () Bool (and .def_120 .def_130))
(define-fun .def_48 () Int (! |.x{1678}| :next |.x{1980}|))
(define-fun .def_136 () Bool (= .def_48 |.x{1980}|))
(define-fun .def_588 () Bool (and .def_136 .def_587))
(define-fun .def_50 () Int (! |.x{1679}| :next |.x{1981}|))
(define-fun .def_138 () Bool (= .def_50 |.x{1981}|))
(define-fun .def_589 () Bool (and .def_138 .def_588))
(define-fun .def_58 () Int (! |.x{1683}| :next |.x{1985}|))
(define-fun .def_140 () Bool (= .def_58 |.x{1985}|))
(define-fun .def_590 () Bool (and .def_140 .def_589))
(define-fun .def_64 () Int (! |.x{1686}| :next |.x{1988}|))
(define-fun .def_142 () Bool (= .def_64 |.x{1988}|))
(define-fun .def_591 () Bool (and .def_142 .def_590))
(define-fun .def_72 () Int (! |.x{1690}| :next |.x{1992}|))
(define-fun .def_144 () Bool (= .def_72 |.x{1992}|))
(define-fun .def_592 () Bool (and .def_144 .def_591))
(define-fun .def_74 () Int (! |.x{1691}| :next |.x{1993}|))
(define-fun .def_188 () Bool (= .def_74 |.x{1993}|))
(define-fun .def_593 () Bool (and .def_188 .def_592))
(define-fun .def_80 () Int (! |.x{1694}| :next |.x{1996}|))
(define-fun .def_146 () Bool (= .def_80 |.x{1996}|))
(define-fun .def_594 () Bool (and .def_146 .def_593))
(define-fun .def_597 () Bool (and .def_594 .def_596))
(define-fun .def_150 () Bool (= .def_82 |.x{1997}|))
(define-fun .def_598 () Bool (and .def_150 .def_597))
(define-fun .def_599 () Bool (and .def_86 .def_598))
(define-fun .def_538 () Bool (<= |.x{2069}| 2147483647))
(define-fun .def_537 () Bool (<= (- 2147483648) |.x{2069}|))
(define-fun .def_539 () Bool (and .def_537 .def_538))
(define-fun .def_536 () Bool (= |.x{1985}| |.x{2069}|))
(define-fun .def_540 () Bool (and .def_536 .def_539))
(define-fun .def_584 () Bool (or .def_82 .def_540))
(define-fun .def_532 () Bool (= |.x{2069}| 0))
(define-fun .def_582 () Bool (or .def_82 .def_532))
(define-fun .def_56 () Int (! |.x{1682}| :next |.x{1984}|))
(define-fun .def_520 () Bool (= |.x{1980}| .def_56))
(define-fun .def_60 () Int (! |.x{1684}| :next |.x{1986}|))
(define-fun .def_519 () Bool (= .def_60 |.x{1988}|))
(define-fun .def_521 () Bool (and .def_519 .def_520))
(define-fun .def_512 () Int (* 8 |.x{1992}|))
(define-fun .def_513 () Int (+ |.x{1978}| .def_512))
(define-fun .def_514 () (Array Int Int) (select .def_14 |.x{1981}|))
(define-fun .def_515 () Int (select .def_514 .def_513))
(define-fun .def_516 () Bool (= |.x{1992}| .def_515))
(define-fun .def_517 () Int (ite .def_516 1 0))
(define-fun .def_518 () Bool (= |.x{1985}| .def_517))
(define-fun .def_522 () Bool (and .def_518 .def_521))
(define-fun .def_511 () Bool (= |.x{1981}| |.x{1996}|))
(define-fun .def_523 () Bool (and .def_511 .def_522))
(define-fun .def_510 () Bool (= |.x{1978}| |.x{1980}|))
(define-fun .def_524 () Bool (and .def_510 .def_523))
(define-fun .def_52 () Int (! |.x{1680}| :next |.x{1982}|))
(define-fun .def_509 () Bool (= .def_52 |.x{1996}|))
(define-fun .def_525 () Bool (and .def_509 .def_524))
(define-fun .def_508 () Bool (= |.x{1988}| |.x{1992}|))
(define-fun .def_526 () Bool (and .def_508 .def_525))
(define-fun .def_527 () Bool (or .def_82 .def_526))
(define-fun .def_580 () Bool (and |.x{1997}| .def_527))
(define-fun .def_581 () Bool (and .def_148 .def_580))
(define-fun .def_583 () Bool (and .def_581 .def_582))
(define-fun .def_585 () Bool (and .def_583 .def_584))
(define-fun .def_62 () Int (! |.x{1723}| :next |.x{1987}|))
(define-fun .def_156 () Bool (= .def_62 |.x{1987}|))
(define-fun .def_586 () Bool (and .def_156 .def_585))
(define-fun .def_600 () Bool (or .def_586 .def_599))
(define-fun .def_315 () Bool (not |.loc{9}|))
(define-fun .def_576 () Bool (and |.loc{12}| .def_315))
(define-fun .def_577 () Bool (and .def_315 .def_576))
(define-fun .def_115 () Bool (not |.loc{10}|))
(define-fun .def_578 () Bool (and .def_115 .def_577))
(define-fun .def_117 () Bool (not |.loc{11}|))
(define-fun .def_579 () Bool (and .def_117 .def_578))
(define-fun .def_601 () Bool (and .def_579 .def_600))
(define-fun .def_175 () Bool (= .def_52 |.x{1982}|))
(define-fun .def_602 () Bool (and .def_175 .def_601))
(define-fun .def_179 () Bool (= .def_56 |.x{1984}|))
(define-fun .def_603 () Bool (and .def_179 .def_602))
(define-fun .def_183 () Bool (= .def_68 |.x{1990}|))
(define-fun .def_604 () Bool (and .def_183 .def_603))
(define-fun .def_233 () Bool (= .def_10 |.x{1961}|))
(define-fun .def_605 () Bool (and .def_233 .def_604))
(define-fun .def_161 () Bool (and |.loc{9}| |.loc{10}|))
(define-fun .def_549 () Bool (and |.loc{11}| .def_161))
(define-fun .def_570 () Bool (and .def_82 .def_549))
(define-fun .def_571 () Bool (and .def_527 .def_570))
(define-fun .def_132 () Bool (not |.loc{12}|))
(define-fun .def_572 () Bool (and .def_132 .def_571))
(define-fun .def_573 () Bool (and |.x{1997}| .def_572))
(define-fun .def_574 () Bool (and .def_148 .def_573))
(define-fun .def_575 () Bool (and .def_156 .def_574))
(define-fun .def_606 () Bool (or .def_575 .def_605))
(define-fun .def_607 () Bool (and .def_84 .def_606))
(define-fun .def_558 () Bool (= |.x{1990}| 0))
(define-fun .def_556 () (Array Int Int) (store .def_10 .def_52 0))
(define-fun .def_557 () Bool (= |.x{1961}| .def_556))
(define-fun .def_559 () Bool (and .def_557 .def_558))
(define-fun .def_560 () Bool (or .def_82 .def_559))
(define-fun .def_550 () Bool (and .def_120 .def_549))
(define-fun .def_551 () Bool (and .def_130 .def_550))
(define-fun .def_552 () Bool (and .def_132 .def_551))
(define-fun .def_553 () Bool (and .def_134 .def_552))
(define-fun .def_554 () Bool (and .def_136 .def_553))
(define-fun .def_555 () Bool (and .def_138 .def_554))
(define-fun .def_561 () Bool (and .def_555 .def_560))
(define-fun .def_562 () Bool (and .def_140 .def_561))
(define-fun .def_563 () Bool (and .def_142 .def_562))
(define-fun .def_564 () Bool (and .def_144 .def_563))
(define-fun .def_565 () Bool (and .def_188 .def_564))
(define-fun .def_566 () Bool (and .def_146 .def_565))
(define-fun .def_567 () Bool (and .def_150 .def_566))
(define-fun .def_568 () Bool (and .def_156 .def_567))
(define-fun .def_569 () Bool (and .def_86 .def_568))
(define-fun .def_608 () Bool (or .def_569 .def_607))
(define-fun .def_541 () Bool (or |.x{1997}| .def_540))
(define-fun .def_533 () Bool (not .def_532))
(define-fun .def_534 () Bool (or |.x{1997}| .def_533))
(define-fun .def_506 () Bool (and |.loc{10}| |.loc{11}|))
(define-fun .def_507 () Bool (and .def_315 .def_506))
(define-fun .def_528 () Bool (and .def_507 .def_527))
(define-fun .def_529 () Bool (and .def_132 .def_528))
(define-fun .def_530 () Bool (and .def_175 .def_529))
(define-fun .def_531 () Bool (and .def_179 .def_530))
(define-fun .def_535 () Bool (and .def_531 .def_534))
(define-fun .def_542 () Bool (and .def_535 .def_541))
(define-fun .def_543 () Bool (and .def_183 .def_542))
(define-fun .def_544 () Bool (and .def_148 .def_543))
(define-fun .def_545 () Bool (and .def_150 .def_544))
(define-fun .def_546 () Bool (and .def_233 .def_545))
(define-fun .def_547 () Bool (and .def_156 .def_546))
(define-fun .def_548 () Bool (and .def_84 .def_547))
(define-fun .def_609 () Bool (or .def_548 .def_608))
(define-fun .def_294 () Bool (= .def_60 |.x{1986}|))
(define-fun .def_30 () Int (! |.x{1669}| :next |.x{1971}|))
(define-fun .def_257 () Bool (= .def_30 |.x{1971}|))
(define-fun .def_505 () Bool (and .def_257 .def_294))
(define-fun .def_610 () Bool (and .def_505 .def_609))
(define-fun .def_611 () Bool (and .def_88 .def_610))
(define-fun .def_479 () Bool (<= 0 |.x{1986}|))
(define-fun .def_480 () Bool (not .def_479))
(define-fun .def_477 () Bool (<= 10 |.x{1986}|))
(define-fun .def_478 () Bool (or |.x{1997}| .def_477))
(define-fun .def_481 () Bool (or .def_478 .def_480))
(define-fun .def_473 () Bool (= .def_30 |.x{1986}|))
(define-fun .def_238 () Bool (<= .def_30 2147483647))
(define-fun .def_474 () Bool (and .def_238 .def_473))
(define-fun .def_241 () Bool (<= (- 2147483648) .def_30))
(define-fun .def_475 () Bool (and .def_241 .def_474))
(define-fun .def_476 () Bool (or .def_82 .def_475))
(define-fun .def_482 () Bool (and .def_476 .def_481))
(define-fun .def_483 () Bool (and |.loc{10}| .def_482))
(define-fun .def_484 () Bool (and |.loc{11}| .def_483))
(define-fun .def_485 () Bool (and .def_315 .def_484))
(define-fun .def_486 () Bool (and .def_120 .def_485))
(define-fun .def_487 () Bool (and .def_130 .def_486))
(define-fun .def_488 () Bool (and .def_132 .def_487))
(define-fun .def_489 () Bool (and .def_134 .def_488))
(define-fun .def_490 () Bool (and .def_136 .def_489))
(define-fun .def_491 () Bool (and .def_138 .def_490))
(define-fun .def_492 () Bool (and .def_175 .def_491))
(define-fun .def_493 () Bool (and .def_179 .def_492))
(define-fun .def_494 () Bool (and .def_140 .def_493))
(define-fun .def_495 () Bool (and .def_142 .def_494))
(define-fun .def_496 () Bool (and .def_183 .def_495))
(define-fun .def_497 () Bool (and .def_144 .def_496))
(define-fun .def_498 () Bool (and .def_188 .def_497))
(define-fun .def_499 () Bool (and .def_146 .def_498))
(define-fun .def_500 () Bool (and .def_150 .def_499))
(define-fun .def_501 () Bool (and .def_233 .def_500))
(define-fun .def_502 () Bool (and .def_152 .def_501))
(define-fun .def_503 () Bool (and .def_156 .def_502))
(define-fun .def_504 () Bool (and .def_86 .def_503))
(define-fun .def_612 () Bool (or .def_504 .def_611))
(define-fun .def_76 () Int (! |.x{1692}| :next |.x{1994}|))
(define-fun .def_190 () Bool (= .def_76 |.x{1994}|))
(define-fun .def_613 () Bool (and .def_190 .def_612))
(define-fun .def_378 () Bool (<= .def_76 .def_60))
(define-fun .def_453 () Bool (or .def_82 .def_378))
(define-fun .def_424 () Bool (and |.loc{9}| |.loc{11}|))
(define-fun .def_449 () Bool (and .def_257 .def_424))
(define-fun .def_450 () Bool (and .def_115 .def_449))
(define-fun .def_451 () Bool (and .def_120 .def_450))
(define-fun .def_452 () Bool (and .def_130 .def_451))
(define-fun .def_454 () Bool (and .def_452 .def_453))
(define-fun .def_455 () Bool (and .def_132 .def_454))
(define-fun .def_456 () Bool (and .def_134 .def_455))
(define-fun .def_457 () Bool (and .def_136 .def_456))
(define-fun .def_458 () Bool (and .def_138 .def_457))
(define-fun .def_459 () Bool (and .def_175 .def_458))
(define-fun .def_460 () Bool (and .def_179 .def_459))
(define-fun .def_461 () Bool (and .def_140 .def_460))
(define-fun .def_462 () Bool (and .def_294 .def_461))
(define-fun .def_463 () Bool (and .def_142 .def_462))
(define-fun .def_464 () Bool (and .def_183 .def_463))
(define-fun .def_465 () Bool (and .def_144 .def_464))
(define-fun .def_466 () Bool (and .def_188 .def_465))
(define-fun .def_467 () Bool (and .def_146 .def_466))
(define-fun .def_468 () Bool (and .def_148 .def_467))
(define-fun .def_469 () Bool (and .def_150 .def_468))
(define-fun .def_470 () Bool (and .def_233 .def_469))
(define-fun .def_471 () Bool (and .def_156 .def_470))
(define-fun .def_472 () Bool (and .def_88 .def_471))
(define-fun .def_614 () Bool (or .def_472 .def_613))
(define-fun .def_425 () Bool (and .def_82 .def_424))
(define-fun .def_426 () Bool (and .def_257 .def_425))
(define-fun .def_427 () Bool (and .def_115 .def_426))
(define-fun .def_428 () Bool (and .def_120 .def_427))
(define-fun .def_429 () Bool (and .def_130 .def_428))
(define-fun .def_430 () Bool (and .def_132 .def_429))
(define-fun .def_431 () Bool (and .def_136 .def_430))
(define-fun .def_432 () Bool (and .def_138 .def_431))
(define-fun .def_433 () Bool (and .def_175 .def_432))
(define-fun .def_434 () Bool (and .def_179 .def_433))
(define-fun .def_435 () Bool (and .def_140 .def_434))
(define-fun .def_436 () Bool (and .def_294 .def_435))
(define-fun .def_437 () Bool (and .def_142 .def_436))
(define-fun .def_438 () Bool (and .def_183 .def_437))
(define-fun .def_439 () Bool (and .def_144 .def_438))
(define-fun .def_440 () Bool (and .def_188 .def_439))
(define-fun .def_441 () Bool (and .def_190 .def_440))
(define-fun .def_442 () Bool (and .def_146 .def_441))
(define-fun .def_443 () Bool (and .def_150 .def_442))
(define-fun .def_444 () Bool (and .def_233 .def_443))
(define-fun .def_445 () Bool (and .def_152 .def_444))
(define-fun .def_446 () Bool (and .def_156 .def_445))
(define-fun .def_447 () Bool (and .def_84 .def_446))
(define-fun .def_448 () Bool (and .def_86 .def_447))
(define-fun .def_615 () Bool (or .def_448 .def_614))
(define-fun .def_38 () Int (! |.x{1673}| :next |.x{1975}|))
(define-fun .def_407 () (Array Int Int) (select .def_14 .def_66))
(define-fun .def_408 () Int (select .def_407 .def_38))
(define-fun .def_409 () Bool (= |.x{1994}| .def_408))
(define-fun .def_410 () Bool (or .def_82 .def_409))
(define-fun .def_396 () Bool (and |.loc{11}| .def_315))
(define-fun .def_397 () Bool (and .def_257 .def_396))
(define-fun .def_398 () Bool (and .def_115 .def_397))
(define-fun .def_399 () Bool (and .def_120 .def_398))
(define-fun .def_400 () Bool (and .def_130 .def_399))
(define-fun .def_401 () Bool (and .def_132 .def_400))
(define-fun .def_402 () Bool (and .def_136 .def_401))
(define-fun .def_403 () Bool (and .def_138 .def_402))
(define-fun .def_404 () Bool (and .def_175 .def_403))
(define-fun .def_405 () Bool (and .def_179 .def_404))
(define-fun .def_406 () Bool (and .def_140 .def_405))
(define-fun .def_411 () Bool (and .def_406 .def_410))
(define-fun .def_412 () Bool (and .def_294 .def_411))
(define-fun .def_413 () Bool (and .def_142 .def_412))
(define-fun .def_414 () Bool (and .def_183 .def_413))
(define-fun .def_415 () Bool (and .def_144 .def_414))
(define-fun .def_416 () Bool (and .def_188 .def_415))
(define-fun .def_417 () Bool (and .def_146 .def_416))
(define-fun .def_418 () Bool (and .def_150 .def_417))
(define-fun .def_419 () Bool (and .def_233 .def_418))
(define-fun .def_420 () Bool (and .def_152 .def_419))
(define-fun .def_421 () Bool (and .def_156 .def_420))
(define-fun .def_422 () Bool (and .def_84 .def_421))
(define-fun .def_423 () Bool (and .def_86 .def_422))
(define-fun .def_616 () Bool (or .def_423 .def_615))
(define-fun .def_70 () Int (! |.x{1689}| :next |.x{1991}|))
(define-fun .def_185 () Bool (= .def_70 |.x{1991}|))
(define-fun .def_617 () Bool (and .def_185 .def_616))
(define-fun .def_380 () Int (* (- 1) |.x{1986}|))
(define-fun .def_381 () Int (+ .def_60 .def_380))
(define-fun .def_382 () Bool (= .def_381 (- 1)))
(define-fun .def_379 () Bool (not .def_378))
(define-fun .def_383 () Bool (and .def_379 .def_382))
(define-fun .def_384 () Bool (or .def_82 .def_383))
(define-fun .def_367 () Bool (and .def_161 .def_257))
(define-fun .def_368 () Bool (and .def_117 .def_367))
(define-fun .def_369 () Bool (and .def_120 .def_368))
(define-fun .def_370 () Bool (and .def_130 .def_369))
(define-fun .def_371 () Bool (and .def_132 .def_370))
(define-fun .def_372 () Bool (and .def_134 .def_371))
(define-fun .def_373 () Bool (and .def_136 .def_372))
(define-fun .def_374 () Bool (and .def_138 .def_373))
(define-fun .def_375 () Bool (and .def_175 .def_374))
(define-fun .def_376 () Bool (and .def_179 .def_375))
(define-fun .def_377 () Bool (and .def_140 .def_376))
(define-fun .def_385 () Bool (and .def_377 .def_384))
(define-fun .def_386 () Bool (and .def_142 .def_385))
(define-fun .def_387 () Bool (and .def_183 .def_386))
(define-fun .def_388 () Bool (and .def_144 .def_387))
(define-fun .def_389 () Bool (and .def_188 .def_388))
(define-fun .def_390 () Bool (and .def_146 .def_389))
(define-fun .def_391 () Bool (and .def_148 .def_390))
(define-fun .def_392 () Bool (and .def_150 .def_391))
(define-fun .def_393 () Bool (and .def_233 .def_392))
(define-fun .def_394 () Bool (and .def_156 .def_393))
(define-fun .def_395 () Bool (and .def_88 .def_394))
(define-fun .def_618 () Bool (or .def_395 .def_617))
(define-fun .def_341 () Bool (and .def_82 |.loc{10}|))
(define-fun .def_342 () Bool (and .def_315 .def_341))
(define-fun .def_343 () Bool (and .def_257 .def_342))
(define-fun .def_344 () Bool (and .def_117 .def_343))
(define-fun .def_345 () Bool (and .def_120 .def_344))
(define-fun .def_346 () Bool (and .def_130 .def_345))
(define-fun .def_347 () Bool (and .def_132 .def_346))
(define-fun .def_348 () Bool (and .def_136 .def_347))
(define-fun .def_349 () Bool (and .def_138 .def_348))
(define-fun .def_350 () Bool (and .def_175 .def_349))
(define-fun .def_351 () Bool (and .def_179 .def_350))
(define-fun .def_352 () Bool (and .def_140 .def_351))
(define-fun .def_353 () Bool (and .def_294 .def_352))
(define-fun .def_354 () Bool (and .def_142 .def_353))
(define-fun .def_355 () Bool (and .def_183 .def_354))
(define-fun .def_356 () Bool (and .def_185 .def_355))
(define-fun .def_357 () Bool (and .def_144 .def_356))
(define-fun .def_358 () Bool (and .def_188 .def_357))
(define-fun .def_359 () Bool (and .def_190 .def_358))
(define-fun .def_360 () Bool (and .def_146 .def_359))
(define-fun .def_361 () Bool (and .def_150 .def_360))
(define-fun .def_362 () Bool (and .def_148 .def_361))
(define-fun .def_363 () Bool (and .def_233 .def_362))
(define-fun .def_364 () Bool (and .def_152 .def_363))
(define-fun .def_365 () Bool (and .def_156 .def_364))
(define-fun .def_366 () Bool (and .def_84 .def_365))
(define-fun .def_619 () Bool (or .def_366 .def_618))
(define-fun .def_54 () Int (! |.x{1681}| :next |.x{1983}|))
(define-fun .def_269 () Bool (<= 20 .def_54))
(define-fun .def_313 () Bool (or .def_82 .def_269))
(define-fun .def_314 () Bool (and |.loc{10}| .def_313))
(define-fun .def_316 () Bool (and .def_314 .def_315))
(define-fun .def_317 () Bool (and .def_257 .def_316))
(define-fun .def_318 () Bool (and .def_117 .def_317))
(define-fun .def_319 () Bool (and .def_120 .def_318))
(define-fun .def_320 () Bool (and .def_130 .def_319))
(define-fun .def_321 () Bool (and .def_132 .def_320))
(define-fun .def_322 () Bool (and .def_136 .def_321))
(define-fun .def_323 () Bool (and .def_138 .def_322))
(define-fun .def_324 () Bool (and .def_175 .def_323))
(define-fun .def_325 () Bool (and .def_179 .def_324))
(define-fun .def_326 () Bool (and .def_140 .def_325))
(define-fun .def_327 () Bool (and .def_294 .def_326))
(define-fun .def_328 () Bool (and .def_142 .def_327))
(define-fun .def_329 () Bool (and .def_183 .def_328))
(define-fun .def_330 () Bool (and .def_185 .def_329))
(define-fun .def_331 () Bool (and .def_144 .def_330))
(define-fun .def_332 () Bool (and .def_188 .def_331))
(define-fun .def_333 () Bool (and .def_190 .def_332))
(define-fun .def_334 () Bool (and .def_146 .def_333))
(define-fun .def_335 () Bool (and .def_148 .def_334))
(define-fun .def_336 () Bool (and .def_150 .def_335))
(define-fun .def_337 () Bool (and .def_233 .def_336))
(define-fun .def_338 () Bool (and .def_152 .def_337))
(define-fun .def_339 () Bool (and .def_156 .def_338))
(define-fun .def_340 () Bool (and .def_84 .def_339))
(define-fun .def_620 () Bool (or .def_340 .def_619))
(define-fun .def_40 () Int (! |.x{1674}| :next |.x{1976}|))
(define-fun .def_166 () Bool (= .def_40 |.x{1976}|))
(define-fun .def_36 () Int (! |.x{1672}| :next |.x{1974}|))
(define-fun .def_164 () Bool (= .def_36 |.x{1974}|))
(define-fun .def_309 () Bool (and .def_164 .def_166))
(define-fun .def_42 () Int (! |.x{1675}| :next |.x{1977}|))
(define-fun .def_168 () Bool (= .def_42 |.x{1977}|))
(define-fun .def_310 () Bool (and .def_168 .def_309))
(define-fun .def_177 () Bool (= .def_54 |.x{1983}|))
(define-fun .def_311 () Bool (and .def_177 .def_310))
(define-fun .def_154 () Bool (= .def_14 |.x{1963}|))
(define-fun .def_312 () Bool (and .def_154 .def_311))
(define-fun .def_621 () Bool (and .def_312 .def_620))
(define-fun .def_276 () Int (* 8 .def_54))
(define-fun .def_280 () Int (+ .def_276 .def_56))
(define-fun .def_282 () Int (+ .def_280 4))
(define-fun .def_279 () (Array Int Int) (select .def_14 .def_52))
(define-fun .def_281 () (Array Int Int) (store .def_279 .def_280 .def_36))
(define-fun .def_283 () (Array Int Int) (store .def_281 .def_282 .def_40))
(define-fun .def_284 () (Array Int (Array Int Int)) (store .def_14 .def_52 .def_283))
(define-fun .def_285 () Bool (= |.x{1963}| .def_284))
(define-fun .def_270 () Bool (not .def_269))
(define-fun .def_267 () Bool (<= (- 2147483648) .def_40))
(define-fun .def_271 () Bool (and .def_267 .def_270))
(define-fun .def_266 () Bool (<= (- 2147483648) .def_36))
(define-fun .def_272 () Bool (and .def_266 .def_271))
(define-fun .def_265 () Bool (<= .def_36 2147483647))
(define-fun .def_273 () Bool (and .def_265 .def_272))
(define-fun .def_264 () Bool (<= .def_40 2147483647))
(define-fun .def_274 () Bool (and .def_264 .def_273))
(define-fun .def_286 () Bool (and .def_274 .def_285))
(define-fun .def_287 () Bool (or .def_82 .def_286))
(define-fun .def_252 () Int (* (- 1) |.x{1983}|))
(define-fun .def_253 () Int (+ .def_54 .def_252))
(define-fun .def_254 () Bool (= .def_253 (- 1)))
(define-fun .def_255 () Bool (or |.x{1997}| .def_254))
(define-fun .def_256 () Bool (and |.loc{9}| .def_255))
(define-fun .def_258 () Bool (and .def_256 .def_257))
(define-fun .def_259 () Bool (and .def_115 .def_258))
(define-fun .def_260 () Bool (and .def_117 .def_259))
(define-fun .def_261 () Bool (and .def_120 .def_260))
(define-fun .def_262 () Bool (and .def_130 .def_261))
(define-fun .def_263 () Bool (and .def_132 .def_262))
(define-fun .def_288 () Bool (and .def_263 .def_287))
(define-fun .def_289 () Bool (and .def_136 .def_288))
(define-fun .def_290 () Bool (and .def_138 .def_289))
(define-fun .def_291 () Bool (and .def_175 .def_290))
(define-fun .def_292 () Bool (and .def_179 .def_291))
(define-fun .def_293 () Bool (and .def_140 .def_292))
(define-fun .def_295 () Bool (and .def_293 .def_294))
(define-fun .def_296 () Bool (and .def_142 .def_295))
(define-fun .def_297 () Bool (and .def_183 .def_296))
(define-fun .def_298 () Bool (and .def_185 .def_297))
(define-fun .def_299 () Bool (and .def_144 .def_298))
(define-fun .def_300 () Bool (and .def_188 .def_299))
(define-fun .def_301 () Bool (and .def_190 .def_300))
(define-fun .def_302 () Bool (and .def_146 .def_301))
(define-fun .def_303 () Bool (and .def_148 .def_302))
(define-fun .def_304 () Bool (and .def_150 .def_303))
(define-fun .def_305 () Bool (and .def_233 .def_304))
(define-fun .def_306 () Bool (and .def_152 .def_305))
(define-fun .def_307 () Bool (and .def_156 .def_306))
(define-fun .def_308 () Bool (and .def_84 .def_307))
(define-fun .def_622 () Bool (or .def_308 .def_621))
(define-fun .def_46 () Int (! |.x{1677}| :next |.x{1979}|))
(define-fun .def_250 () Bool (= .def_46 |.x{1979}|))
(define-fun .def_32 () Int (! |.x{1670}| :next |.x{1972}|))
(define-fun .def_248 () Bool (= .def_32 |.x{1972}|))
(define-fun .def_247 () Bool (= .def_38 |.x{1975}|))
(define-fun .def_249 () Bool (and .def_247 .def_248))
(define-fun .def_251 () Bool (and .def_249 .def_250))
(define-fun .def_623 () Bool (and .def_251 .def_622))
(define-fun .def_625 () Bool (and .def_623 .def_624))
(define-fun .def_627 () Bool (and .def_625 .def_626))
(define-fun .def_236 () Bool (= .def_30 |.x{2069}|))
(define-fun .def_239 () Bool (and .def_236 .def_238))
(define-fun .def_242 () Bool (and .def_239 .def_241))
(define-fun .def_243 () Bool (or .def_82 .def_242))
(define-fun .def_227 () Bool (= |.x{1982}| |.x{1989}|))
(define-fun .def_198 () Int (* 8 |.x{2069}|))
(define-fun .def_221 () Int (+ |.x{1984}| .def_198))
(define-fun .def_222 () (Array Int Int) (select .def_14 |.x{1982}|))
(define-fun .def_223 () (Array Int Int) (store .def_222 .def_221 |.x{2069}|))
(define-fun .def_224 () (Array Int (Array Int Int)) (store .def_14 |.x{1982}| .def_223))
(define-fun .def_225 () Bool (= |.x{1963}| .def_224))
(define-fun .def_219 () Bool (= |.x{1979}| |.x{1982}|))
(define-fun .def_211 () Int (* (- 8) |.x{2069}|))
(define-fun .def_212 () Int (* (- 1) |.x{1984}|))
(define-fun .def_215 () Int (+ .def_212 .def_211))
(define-fun .def_216 () Int (+ |.x{1975}| .def_215))
(define-fun .def_217 () Bool (= .def_216 0))
(define-fun .def_208 () Bool (= |.x{1972}| |.x{1984}|))
(define-fun .def_206 () Bool (<= 10 |.x{2069}|))
(define-fun .def_207 () Bool (not .def_206))
(define-fun .def_209 () Bool (and .def_207 .def_208))
(define-fun .def_218 () Bool (and .def_209 .def_217))
(define-fun .def_220 () Bool (and .def_218 .def_219))
(define-fun .def_226 () Bool (and .def_220 .def_225))
(define-fun .def_228 () Bool (and .def_226 .def_227))
(define-fun .def_199 () Int (+ |.x{1972}| .def_198))
(define-fun .def_200 () (Array Int Int) (select |.x{1963}| |.x{1979}|))
(define-fun .def_201 () Int (select .def_200 .def_199))
(define-fun .def_203 () Int (* (- 1) .def_201))
(define-fun .def_204 () Int (+ |.x{1986}| .def_203))
(define-fun .def_205 () Bool (= .def_204 10))
(define-fun .def_229 () Bool (and .def_205 .def_228))
(define-fun .def_195 () Bool (<= 0 |.x{2069}|))
(define-fun .def_230 () Bool (and .def_195 .def_229))
(define-fun .def_231 () Bool (or |.x{1997}| .def_230))
(define-fun .def_162 () Bool (and .def_117 .def_161))
(define-fun .def_163 () Bool (and .def_120 .def_162))
(define-fun .def_165 () Bool (and .def_163 .def_164))
(define-fun .def_167 () Bool (and .def_165 .def_166))
(define-fun .def_169 () Bool (and .def_167 .def_168))
(define-fun .def_170 () Bool (and .def_130 .def_169))
(define-fun .def_171 () Bool (and .def_132 .def_170))
(define-fun .def_172 () Bool (and .def_134 .def_171))
(define-fun .def_173 () Bool (and .def_136 .def_172))
(define-fun .def_174 () Bool (and .def_138 .def_173))
(define-fun .def_176 () Bool (and .def_174 .def_175))
(define-fun .def_178 () Bool (and .def_176 .def_177))
(define-fun .def_180 () Bool (and .def_178 .def_179))
(define-fun .def_181 () Bool (and .def_140 .def_180))
(define-fun .def_182 () Bool (and .def_142 .def_181))
(define-fun .def_184 () Bool (and .def_182 .def_183))
(define-fun .def_186 () Bool (and .def_184 .def_185))
(define-fun .def_187 () Bool (and .def_144 .def_186))
(define-fun .def_189 () Bool (and .def_187 .def_188))
(define-fun .def_191 () Bool (and .def_189 .def_190))
(define-fun .def_192 () Bool (and .def_146 .def_191))
(define-fun .def_193 () Bool (and .def_150 .def_192))
(define-fun .def_232 () Bool (and .def_193 .def_231))
(define-fun .def_234 () Bool (and .def_232 .def_233))
(define-fun .def_235 () Bool (and .def_152 .def_234))
(define-fun .def_244 () Bool (and .def_235 .def_243))
(define-fun .def_245 () Bool (and .def_156 .def_244))
(define-fun .def_246 () Bool (and .def_86 .def_245))
(define-fun .def_628 () Bool (or .def_246 .def_627))
(define-fun .def_159 () Bool (= .def_22 |.x{1967}|))
(define-fun .def_158 () Bool (= .def_26 |.x{1969}|))
(define-fun .def_160 () Bool (and .def_158 .def_159))
(define-fun .def_629 () Bool (and .def_160 .def_628))
(define-fun .def_631 () Bool (and .def_629 .def_630))
(define-fun .def_125 () Bool (= |.x{1969}| 0))
(define-fun .def_124 () Bool (= |.x{1965}| 0))
(define-fun .def_126 () Bool (and .def_124 .def_125))
(define-fun .def_122 () (Array Int Int) (store .def_10 0 0))
(define-fun .def_123 () Bool (= |.x{151}| .def_122))
(define-fun .def_127 () Bool (and .def_123 .def_126))
(define-fun .def_128 () Bool (or .def_82 .def_127))
(define-fun .def_116 () Bool (and |.loc{9}| .def_115))
(define-fun .def_118 () Bool (and .def_116 .def_117))
(define-fun .def_108 () Bool (<= |.x{1960}| |.x{1982}|))
(define-fun .def_109 () Bool (not .def_108))
(define-fun .def_104 () (Array Int Int) (store .def_22 |.x{1982}| 160))
(define-fun .def_105 () Bool (= |.x{1967}| .def_104))
(define-fun .def_102 () Bool (= |.x{1984}| 0))
(define-fun .def_106 () Bool (and .def_102 .def_105))
(define-fun .def_100 () (Array Int Int) (store |.x{151}| |.x{1982}| 1))
(define-fun .def_101 () Bool (= |.x{1961}| .def_100))
(define-fun .def_107 () Bool (and .def_101 .def_106))
(define-fun .def_110 () Bool (and .def_107 .def_109))
(define-fun .def_98 () Bool (= |.x{1983}| 0))
(define-fun .def_111 () Bool (and .def_98 .def_110))
(define-fun .def_96 () Bool (= |.x{1982}| 0))
(define-fun .def_97 () Bool (not .def_96))
(define-fun .def_112 () Bool (and .def_97 .def_111))
(define-fun .def_94 () Int (select |.x{151}| |.x{1982}|))
(define-fun .def_95 () Bool (= .def_94 0))
(define-fun .def_113 () Bool (and .def_95 .def_112))
(define-fun .def_114 () Bool (or |.x{1997}| .def_113))
(define-fun .def_119 () Bool (and .def_114 .def_118))
(define-fun .def_121 () Bool (and .def_119 .def_120))
(define-fun .def_129 () Bool (and .def_121 .def_128))
(define-fun .def_131 () Bool (and .def_129 .def_130))
(define-fun .def_133 () Bool (and .def_131 .def_132))
(define-fun .def_135 () Bool (and .def_133 .def_134))
(define-fun .def_137 () Bool (and .def_135 .def_136))
(define-fun .def_139 () Bool (and .def_137 .def_138))
(define-fun .def_141 () Bool (and .def_139 .def_140))
(define-fun .def_143 () Bool (and .def_141 .def_142))
(define-fun .def_145 () Bool (and .def_143 .def_144))
(define-fun .def_147 () Bool (and .def_145 .def_146))
(define-fun .def_149 () Bool (and .def_147 .def_148))
(define-fun .def_151 () Bool (and .def_149 .def_150))
(define-fun .def_153 () Bool (and .def_151 .def_152))
(define-fun .def_155 () Bool (and .def_153 .def_154))
(define-fun .def_157 () Bool (and .def_155 .def_156))
(define-fun .def_632 () Bool (or .def_157 .def_631))
(define-fun .def_646 () Bool (! (and .def_632 .def_645) :trans true))
(define-fun .def_662 () Bool (and .def_90 .def_659))
(define-fun .def_663 () Bool (and .def_82 .def_662))
(define-fun .def_664 () Bool (! (not .def_663) :invar-property 0))
(assert true)
